c description: Random 3-CNF over 13 variables and 52 clauses
p cnf 13 52
-3 11 -13 0
5 7 10 0
-1 4 9 0
1 5 -8 0
3 7 -9 0
-8 10 12 0
7 -8 -10 0
3 4 -6 0
1 6 -9 0
-4 -9 12 0
-4 10 -13 0
-2 8 12 0
-1 5 -8 0
3 -7 11 0
-1 -6 -10 0
3 -9 -12 0
1 -2 9 0
-1 -6 10 0
-3 7 -13 0
-6 -8 13 0
-5 7 -10 0
-4 7 -11 0
6 11 13 0
9 10 -13 0
2 5 -12 0
-1 -8 -13 0
3 8 -11 0
-4 -10 -11 0
1 5 10 0
2 8 10 0
-6 -9 -13 0
-2 -9 12 0
2 -10 -13 0
-4 5 6 0
3 -8 9 0
2 -3 12 0
-1 -5 -6 0
-1 7 -8 0
3 -5 9 0
-8 -9 11 0
1 7 13 0
-4 7 12 0
4 -7 12 0
-9 -10 11 0
3 -5 -11 0
2 6 -9 0
7 9 11 0
1 2 10 0
-4 8 9 0
6 -8 13 0
6 -8 -9 0
-2 7 13 0